# Solution for model iteration_151
# Objective value = 4.9956113691768849e+01
0 0
1 0.001
3 0.001
4 30.001
5 4.9197009828022196e+01
7 4.0495422153632433e+01
9 3.0002000000000002e+01
10 40.002
11 40.003
12 50.003
13 7.2161486750720087e+01
15 7.2161486750720087e+01
17 8.8419383160341184e+01
19 8.1290242129993914e+01
21 9.8406460376660561e+01
23 1.0482286667655397e+02
25 1.0458888114971272e+02
27 1.2122635019276676e+02
29 1.2209186242926882e+02
31 1.3049869267863230e+02
33 1.4610152348878822e+02
35 1.8096011369176884e+02
36 2.1696011369176884e+02
37 1.8014068287018964e+02
39 2.1696111369176884e+02
40 2.5596111369176884e+02
41 2.5596211369176885e+02
42 2.6596211369176888e+02
43 2.6596311369176885e+02
c(0,43)_rl 0
c(0,43)_ru 4.9956113691768849e+01
lambda[0] 0
lambda[1] 0
lambda[2] 0
lambda[3] 0
lambda[4] 0
lambda[5] 0
lambda[6] 0
lambda[7] 0
lambda[8] 0
lambda[9] 0
lambda[10] 0
lambda[11] 0
lambda[12] 0
lambda[13] 0
lambda[14] 0
lambda[15] 0
lambda[16] 0
lambda[17] 0
lambda[18] 0
lambda[19] 0
lambda[20] 0
lambda[21] 0
lambda[22] 0
lambda[23] 0
lambda[24] 0
lambda[25] 0
lambda[26] 0
lambda[27] 0
lambda[28] 0
lambda[29] 0
lambda[30] 0
lambda[31] 0
lambda[32] 0
lambda[33] 0
lambda[34] 0
lambda[35] 0
lambda[36] 0
lambda[37] 0
lambda[38] 0
lambda[39] 0
lambda[40] 0
lambda[41] 0
lambda[42] 0
lambda[43] 0
lambda[44] 0
lambda[45] 0
lambda[46] 0
lambda[47] 0
lambda[48] 0
lambda[49] 0
lambda[50] 0
lambda[51] 0
lambda[52] 0
lambda[53] 0
lambda[54] 0
lambda[55] 0
lambda[56] 0
lambda[57] 0
lambda[58] 0
lambda[59] 0
lambda[60] 0
lambda[61] 0
lambda[62] 0
lambda[63] 0
lambda[64] 0
lambda[65] 0
lambda[66] 0
lambda[67] 0
lambda[68] 0
lambda[69] 0
lambda[70] 0
lambda[71] 0
lambda[72] 0
lambda[73] 0
lambda[74] 0
lambda[75] 0
lambda[76] 0
lambda[77] 0
lambda[78] 0
lambda[79] 0
lambda[80] 0
lambda[81] 0
lambda[82] 0
lambda[83] 0
lambda[84] 0
lambda[85] 0
lambda[86] 0
lambda[87] 0
lambda[88] 0
lambda[89] 0
lambda[90] 0
lambda[91] 0
lambda[92] 0
lambda[93] 0
lambda[94] 0
lambda[95] 0
lambda[96] 0
lambda[97] 0
lambda[98] 0
lambda[99] 0
lambda[100] 0
lambda[101] 0
lambda[102] 0
lambda[103] 0
lambda[104] 0
lambda[105] 0
lambda[106] 0
lambda[107] 0
lambda[108] 0
lambda[109] 0
lambda[110] 0
lambda[111] 0
lambda[112] 0
lambda[113] 0
lambda[114] 0
lambda[115] 0
lambda[116] 0
lambda[117] 0
lambda[118] 0
lambda[119] 0
lambda[120] 0
lambda[121] 0
lambda[122] 0
lambda[123] 0
lambda[124] 0
lambda[125] 0
lambda[126] 0
lambda[127] 0
lambda[128] 0
lambda[129] 0
lambda[130] 0
lambda[131] 0
lambda[132] 0
lambda[133] 0
lambda[134] 0
lambda[135] 0
lambda[136] 0
lambda[137] 0
lambda[138] 0
lambda[139] 0
lambda[140] 0
lambda[141] 0
lambda[142] 0
lambda[143] 0
lambda[144] 2.7461867384373295e-01
lambda[145] 5.1856372108248516e-01
lambda[146] 0
lambda[147] 0
lambda[148] 0
lambda[149] 1.1350454616929273e-01
lambda[150] 0.0933130589044892
phi[0] 2.2314355131420971e-01
